-1,0,1
1,1,3
3,3,4
1,4,11
2,11,16
4,16,22
-1,22,26
5,26,27
6,27,29
5,29,37
16,37,38
17,38,43
5,43,44
10,44,50
13,50,51
7,51,54
14,54,63
12,63,73
11,73,77
8,77,86
15,86,90
20,90,94
18,94,102
9,102,111
19,111,119
-1,119,120
21,120,122
23,122,127
21,127,132
28,132,138
35,138,142
39,142,147
24,147,157
25,157,162
31,162,165
37,165,168
27,168,176
33,176,182
22,182,184
32,184,185
34,185,193
36,193,195
40,195,196
29,196,198
26,198,202
30,202,203
38,203,208
-1,208,220